sat
(:max-memory            26.23
 :memory                17.91
 :num-allocs            78885
 :rlimit-count          12248
 :sat-decisions         5
 :sat-mk-clause-2ary    7
 :sat-mk-clause-nary    3
 :sat-mk-var            9
 :sat-propagations-2ary 4
 :solve-eqs-elim-vars   49
 :solve-eqs-steps       49
 :time                  0.01
 :total-time            0.01)
